
Gurobi 9.1.1 (linux64, gurobi_cl) logging started Thu Aug 26 16:02:18 2021


Gurobi 9.1.1 (linux64, gurobi_cl) logging started Thu Aug 26 19:01:18 2021

Academic license - for non-commercial use only - expires 2022-08-21
Using license file /home/hukai/gurobi.lic
Set parameter LogFile to value gurobi.log
